units metal
atom_style atomic
boundary p p p

read_data tungsten_therm_Duda_rev.dat

# set potential
pair_style eam/fs
# Dudarev W potential, Caro's version
pair_coeff * * eam.W.W.in_DD-BN_lammps.setfl W

variable Xlat equal 3.14
compute peperatom all pe/atom
compute keperatom all ke/atom

thermo 100
thermo_style custom time dt temp vol press etotal pe ke
fix output all print 100 "$(step) $(time) $(temp) $(press) &
$(pe) $(ke) $(etotal)" file tde_out screen no

# Change below line:
dump 1 all custom 10 dump.xyz type x y z c_peperatom c_keperatom
group group_pka id == 1 # change this for different atom
velocity group_pka set V_x 0.0 0.0 units box # metal units:A/ps

fix timestep all dt/reset 1 NULL 0.002 0.05 emax 10
region region_border block $(xlo+v_Xlat) $(xhi-v_Xlat) $(ylo+v_Xlat) &
$(yhi-v_Xlat) $(zlo+v_Xlat) $(zhi-v_Xlat) side out units box
group group_border region region_border

fix fix_heatsink group_border temp/berendsen 30 30 $(100.0*dt)
fix fix_momentum all momentum 1 linear 1 1 1
fix fix_nve all nve

run 5000
dump final all custom 1 final_pos.xyz element x y z id &
c_peperatom c_keperatom
dump_modify final element W
run 0